# Solution for model GasLib-40
# Objective value = 1.5224140654284826e+01
loadshed[innode_1] 0
loadshed[innode_2] 0
loadshed[innode_3] 0
loadshed[innode_4] 0
loadshed[innode_5] 0
loadshed[innode_6] 0
loadshed[innode_7] 0
loadshed[innode_8] 0
loadshed[source_1] -2.1703768947370650e-01
loadshed[source_2] -4.6542937355594116e-02
loadshed[source_3] 3.5988092352222245e-01
loadshed[sink_1] 0
loadshed[sink_2] 0
loadshed[sink_3] 0
loadshed[sink_4] 0
loadshed[sink_5] 0
loadshed[sink_6] 0
loadshed[sink_7] 0
loadshed[sink_8] 0
loadshed[sink_9] 0
loadshed[sink_10] 0
loadshed[sink_11] 0
loadshed[sink_12] 9.3090286803270261e-01
loadshed[sink_13] 0
loadshed[sink_14] 0
loadshed[sink_15] 0
loadshed[sink_16] 0
loadshed[sink_17] 0
loadshed[sink_18] 0
loadshed[sink_19] 0
loadshed[sink_20] 0
loadshed[sink_21] 0
loadshed[sink_22] 0
loadshed[sink_23] 0
loadshed[sink_24] 0
loadshed[sink_25] 0
loadshed[sink_26] 0
loadshed[sink_27] 0
loadshed[sink_28] 0
loadshed[sink_29] 0
flow[source_1,sink_3] 1.9240182639492309e+02
flow[innode_1,sink_16] 1.6354166666666970e+01
flow[innode_6,sink_13] 1.3282564055453735e+01
flow[sink_13,sink_14] -3.0716026112129331e+00
flow[sink_14,sink_10] -1.9425769277879681e+01
flow[sink_25,sink_26] 2.3008835934571610e+02
flow[sink_26,sink_9] 1.4831752601238264e+02
flow[sink_9,sink_18] 131.963359345716
flow[sink_26,sink_4] 6.5416666666666671e+01
flow[sink_4,sink_20] 1.9401072958387655e+01
flow[sink_18,sink_6] 1.1560919267904933e+02
flow[sink_25,innode_8] -1.5969349306158671e+02
flow[sink_6,sink_7] 66.5466926790491
flow[sink_6,sink_22] 3.2708333333333641e+01
flow[sink_7,sink_24] 3.3838359345715183e+01
flow[sink_22,sink_1] 1.6354166666666970e+01
flow[sink_24,sink_21] 1.7484192679048512e+01
flow[sink_21,sink_12] 1.1300260123818435e+00
flow[sink_7,sink_5] 1.6354166666667368e+01
flow[sink_5,sink_17] 0
flow[sink_17,sink_4] -2.9661427041612342e+01
flow[sink_17,sink_8] 1.3307260374945638e+01
flow[sink_3,sink_23] 16.3541666666697
flow[sink_8,sink_20] -3.0469062917210294e+00
flow[sink_25,sink_20] 0
flow[sink_25,sink_15] -1.0003159700624947e+02
flow[sink_15,sink_29] -6.4644062809122445e+01
flow[sink_29,sink_28] 1.6354166666667879e+01
flow[sink_29,sink_2] 6.8095867530460367e+01
flow[sink_2,sink_15] 5.1741700863793696e+01
flow[sink_29,innode_7] -1.6544826367291736e+02
flow[innode_4,sink_19] 1.0119660261122642e+02
flow[sink_19,innode_3] 3.3421986318778011e+01
flow[innode_4,innode_5] 0
flow[sink_27,innode_5] 0
flow[sink_27,sink_19] -1.6354166666679703e+01
flow[sink_10,sink_11] 3.2708333333333641e+01
flow[sink_10,innode_2] -3.5066282959102047e+01
flow[sink_10,innode_3] -3.3421986318778011e+01
flow[innode_6,sink_25] -1.3282564055453735e+01
flow[sink_11,innode_1] 1.6354166666666970e+01
flow[sink_19,innode_2] 3.5066282959102047e+01
flow[source_3,innode_4] 1.0119660261122642e+02
flow[source_2,innode_7] 1.6544826367291736e+02
flow[sink_3,innode_8] 1.5969349306158671e+02
pressure[innode_1] 7.4908418587322132e+01
pressure[innode_2] 7.6913517777806149e+01
pressure[innode_3] 76.8395085737326
pressure[innode_4] 81.01325
pressure[innode_5] 81.01325
pressure[innode_6] 7.4209035946097785e+01
pressure[innode_7] 81.01325
pressure[innode_8] 8.0370124194523541e+01
pressure[source_1] 81.01325
pressure[source_2] 81.01325
pressure[source_3] 81.01325
pressure[sink_1] 3.9163846263638604e+01
pressure[sink_2] 7.4863211914183438e+01
pressure[sink_3] 8.0370124194523541e+01
pressure[sink_4] 4.9686803614887630e+01
pressure[sink_5] 3.3549826379955419e+01
pressure[sink_6] 4.1264923874025975e+01
pressure[sink_7] 4.0351396406850135e+01
pressure[sink_8] 4.8051124173530539e+01
pressure[sink_9] 4.9126861191940726e+01
pressure[sink_10] 7.5060119894925677e+01
pressure[sink_11] 7.4908418587322132e+01
pressure[sink_12] 1.0132500000000002e+00
pressure[sink_13] 7.4135811390182724e+01
pressure[sink_14] 7.4141308284698184e+01
pressure[sink_15] 7.4694286664550347e+01
pressure[sink_16] 7.3886768752504452e+01
pressure[sink_17] 4.8553241678889563e+01
pressure[sink_18] 4.4352033532358639e+01
pressure[sink_19] 7.6913517777806149e+01
pressure[sink_20] 4.8263450692594475e+01
pressure[sink_21] 1.4153751017700236e+00
pressure[sink_22] 4.0227615405993610e+01
pressure[sink_23] 8.0205406182863754e+01
pressure[sink_24] 1.6089962909380997e+00
pressure[sink_25] 7.4209035946097785e+01
pressure[sink_26] 5.8004047920779080e+01
pressure[sink_27] 7.6562387780662647e+01
pressure[sink_28] 7.6292874815960559e+01
pressure[sink_29] 7.6588157089577749e+01
interdiction[source_1,sink_3] 0
interdiction[innode_1,sink_16] 0
interdiction[innode_6,sink_13] 0
interdiction[sink_13,sink_14] 0
interdiction[sink_14,sink_10] 0
interdiction[sink_25,sink_26] 0
interdiction[sink_26,sink_9] 0
interdiction[sink_9,sink_18] 0
interdiction[sink_26,sink_4] 0
interdiction[sink_4,sink_20] 0
interdiction[sink_18,sink_6] 0
interdiction[sink_25,innode_8] 0
interdiction[sink_6,sink_7] 0
interdiction[sink_6,sink_22] 0
interdiction[sink_7,sink_24] 0
interdiction[sink_22,sink_1] 0
interdiction[sink_24,sink_21] 0
interdiction[sink_21,sink_12] 0
interdiction[sink_7,sink_5] 0
interdiction[sink_5,sink_17] 1
interdiction[sink_17,sink_4] 0
interdiction[sink_17,sink_8] 0
interdiction[sink_3,sink_23] 0
interdiction[sink_8,sink_20] 0
interdiction[sink_25,sink_20] 1
interdiction[sink_25,sink_15] 0
interdiction[sink_15,sink_29] 0
interdiction[sink_29,sink_28] 0
interdiction[sink_29,sink_2] 0
interdiction[sink_2,sink_15] 0
interdiction[sink_29,innode_7] 0
interdiction[innode_4,sink_19] 0
interdiction[sink_19,innode_3] 0
interdiction[innode_4,innode_5] 0
interdiction[sink_27,innode_5] 1
interdiction[sink_27,sink_19] 0
interdiction[sink_10,sink_11] 0
interdiction[sink_10,innode_2] 0
interdiction[sink_10,innode_3] 0
interdiction[innode_6,sink_25] 0
interdiction[sink_11,innode_1] 0
interdiction[sink_19,innode_2] 0
interdiction[source_3,innode_4] 0
interdiction[source_2,innode_7] 0
interdiction[sink_3,innode_8] 0
WCcheckFlow[source_1,sink_3] 39
WCcheckFlow[innode_1,sink_16] 1
WCcheckFlow[innode_6,sink_13] 13
WCcheckFlow[sink_13,sink_14] 12
WCcheckFlow[sink_14,sink_10] 11
WCcheckFlow[sink_25,sink_26] 15
WCcheckFlow[sink_26,sink_9] 10
WCcheckFlow[sink_9,sink_18] 9
WCcheckFlow[sink_26,sink_4] 4
WCcheckFlow[sink_4,sink_20] 1
WCcheckFlow[sink_18,sink_6] 8
WCcheckFlow[sink_25,innode_8] -36
WCcheckFlow[sink_6,sink_7] 5
WCcheckFlow[sink_6,sink_22] 2
WCcheckFlow[sink_7,sink_24] 3
WCcheckFlow[sink_22,sink_1] 1
WCcheckFlow[sink_24,sink_21] 2
WCcheckFlow[sink_21,sink_12] 1
WCcheckFlow[sink_7,sink_5] 1
WCcheckFlow[sink_5,sink_17] 0
WCcheckFlow[sink_17,sink_4] -2
WCcheckFlow[sink_17,sink_8] 1
WCcheckFlow[sink_3,sink_23] 1
WCcheckFlow[sink_8,sink_20] 0
WCcheckFlow[sink_25,sink_20] 0
WCcheckFlow[sink_25,sink_15] 6
WCcheckFlow[sink_15,sink_29] 5
WCcheckFlow[sink_29,sink_28] 1
WCcheckFlow[sink_29,sink_2] 1
WCcheckFlow[sink_2,sink_15] 0
WCcheckFlow[sink_29,innode_7] 2
WCcheckFlow[innode_4,sink_19] -3
WCcheckFlow[sink_19,innode_3] -5
WCcheckFlow[innode_4,innode_5] 1
WCcheckFlow[sink_27,innode_5] 0
WCcheckFlow[sink_27,sink_19] -1
WCcheckFlow[sink_10,sink_11] 3
WCcheckFlow[sink_10,innode_2] 1
WCcheckFlow[sink_10,innode_3] 6
WCcheckFlow[innode_6,sink_25] -14
WCcheckFlow[sink_11,innode_1] 2
WCcheckFlow[sink_19,innode_2] 0
WCcheckFlow[source_3,innode_4] -1
WCcheckFlow[source_2,innode_7] -1
WCcheckFlow[sink_3,innode_8] 37
